workspace_BA/FooSearchTree/input_graphs/reference_set_c2/watts_strog_n_60_k_4_p_0.4_0.gr
p td 60 120
0 1
0 59
0 2
0 49
1 2
1 42
1 39
2 4
2 14
2 25
3 10
3 45
4 5
4 6
4 28
4 46
4 50
5 6
5 7
5 28
6 7
6 8
6 59
7 8
7 9
7 39
7 41
8 9
8 43
9 11
9 14
9 10
10 11
11 12
11 13
11 41
12 13
12 14
12 22
13 14
13 15
14 15
14 16
14 35
15 16
15 17
16 50
16 26
16 47
16 34
17 18
17 19
17 23
18 20
18 37
19 20
19 54
19 33
20 21
20 42
21 23
21 59
21 52
22 23
22 49
23 25
23 34
23 40
24 25
24 26
25 52
26 28
27 29
27 55
29 30
29 31
29 51
30 31
30 32
31 41
31 59
32 33
32 34
33 34
33 36
34 36
35 37
35 47
36 37
36 38
37 38
37 39
37 57
38 40
38 44
40 41
40 52
42 43
42 44
43 44
43 45
44 45
44 46
45 46
45 47
46 47
46 58
48 49
48 50
50 51
51 53
53 54
53 55
54 56
55 56
55 57
56 57
56 58
57 59
58 59
