matlab_plots/results/reference_set/watts_strog_n_60_k_4_p_0.4_0.res
file: watts_strog_n_60_k_4_p_0.4_0.gr
total_nodes: 60
c_par: 2
dens: 2.0
lowest_k: 27
solved_k: 35
redu_time: 0.015
redu_nodes: 60
redu_edges: 120
heur_time: 0.000
heur_nodes: 59
heur_edges: 120
heur_k_used: 0
kernel_times: 0.000;0.000;0.000;0.000;0.000;0.016;0.000;0.000;0.000;
kernel_nodes: 60;60;60;60;60;60;60;60;60;
kernel_edges: 120;120;120;120;120;120;120;120;120;
hs_st_times: 0.000;0.000;0.000;0.016;0.078;0.187;0.697;4.291;3.049;
pipe_2_sum: 8.349
pipe_2_res: true
pipe_2_timeout: false
